c instance by G2
c solution = 00110
c Known solution cost is 221 
p cnf 5 30
w 2 85 93 0 41
4 1 -3 0
3 -5 -2 0
-1 -4 5 0
3 -2 5 0
-2 3 1 0
2 3 5 0
5 -1 3 0
-3 -1 5 0
-5 4 -2 0
-1 5 2 0
5 -2 1 0
2 -5 1 0
1 3 4 0
5 4 -2 0
-2 -4 1 0
-4 5 3 0
-2 3 -1 0
4 -5 -3 0
4 5 2 0
1 -2 4 0
4 2 5 0
5 1 -2 0
-3 -5 4 0
4 2 5 0
1 -5 -4 0
-3 -2 4 0
3 -1 4 0
5 1 4 0
-1 -2 5 0
1 -2 5 0
